
<<< setup


<<< generate

CPXPARAM_TimeLimit                               9999
Tried aggregator 1 time.
MIP Presolve eliminated 39 rows and 39 columns.
Reduced MIP has 1681 rows, 3161 columns, and 9404 nonzeros.
Reduced MIP has 1600 binaries, 1561 generals, 0 SOSs, and 0 indicators.
Presolve time = 0,01 sec. (5,08 ticks)
Probing fixed 39 vars, tightened 0 bounds.
Probing time = 0,04 sec. (25,16 ticks)
Cover probing fixed 0 vars, tightened 1521 bounds.
Tried aggregator 1 time.
MIP Presolve eliminated 41 rows and 79 columns.
MIP Presolve modified 1522 coefficients.
Reduced MIP has 1640 rows, 3082 columns, and 9206 nonzeros.
Reduced MIP has 1561 binaries, 1521 generals, 0 SOSs, and 0 indicators.
Presolve time = 0,01 sec. (8,96 ticks)
Probing time = 0,01 sec. (3,66 ticks)
Clique table members: 80.
MIP emphasis: balance optimality and feasibility.
MIP search method: dynamic search.
Parallel mode: deterministic, using up to 4 threads.
Root relaxation solution time = 0,05 sec. (52,84 ticks)

        Nodes                                         Cuts/
   Node  Left     Objective  IInf  Best Integer    Best Bound    ItCnt     Gap

      0     0       37,2052    90                     37,2052      974         
*     0+    0                          153,3019       37,2052            75,73%
      0     0       37,9954   156      153,3019     Cuts: 100     1564   75,22%
      0     0       38,3703   173      153,3019      Cuts: 51     1792   74,97%
      0     0       41,1830   164      153,3019      Cuts: 33     2361   73,14%
*     0+    0                          105,4038       41,1830            60,93%
*     0+    0                           97,0904       41,1830            57,58%
*     0+    0                           95,1165       41,1830            56,70%
*     0+    0                           87,7270       41,1830            53,06%
*     0+    0                           83,5353       41,1830            50,70%
*     0+    0                           76,4011       41,1830            46,10%
*     0+    0                           74,4271       41,1830            44,67%
      0     0       44,5637   171       74,4271      Cuts: 18     3661   40,12%
      0     0       44,7412   164       74,4271      Cuts: 20     3949   39,89%
      0     0       44,7412   165       74,4271      Cuts: 12     4023   39,89%
      0     0       44,7416   147       74,4271   Flowcuts: 1     4024   39,89%
*     0+    0                           72,2125       44,7416            38,04%
      0     0       44,7416   156       72,2125      Cuts: 12     4096   38,04%
      0     2       44,7416   156       72,2125       44,7416     4096   38,04%
Elapsed time = 1,61 sec. (1162,91 ticks, tree = 0,01 MB, solutions = 9)
     33    28       45,3373   108       72,2125       44,9724     9591   37,72%
    122   105       57,6593    41       72,2125       44,9724    29153   37,72%
*   177   136      integral     0       61,0860       44,9724    33690   26,38%
    269   231       46,4027    51       61,0860       44,9724    50227   26,38%
*   301   246      integral     0       48,9671       44,9724    52405    8,16%
    435   218       45,8075    79       48,9671       44,9724    65454    8,16%
    605   329       47,0580    34       48,9671       45,0895    75317    7,92%
    852   492       46,0367   113       48,9671       45,0934    91107    7,91%
   1051   681       46,4621    32       48,9671       45,4494   108913    7,18%
*  1139   713      integral     0       48,5047       45,4494   112495    6,30%
   1304   746       46,4791   118       48,5047       45,5115   122534    6,17%
   1545   931       47,0532    59       48,5047       45,5530   141595    6,09%
*  1664  1114      integral     0       47,7887       45,5631   155560    4,66%
*  2002+ 1148                           47,6124       45,6597             4,10%
   2338  1273       46,9639   116       47,6124       45,7821   208282    3,84%
Elapsed time = 6,52 sec. (4282,81 ticks, tree = 3,27 MB, solutions = 14)
*  2342+  888                           46,5457       46,4878             0,12%

GUB cover cuts applied:  2
Cover cuts applied:  8
Implied bound cuts applied:  38
Flow cuts applied:  102
Mixed integer rounding cuts applied:  9
Zero-half cuts applied:  6
Lift and project cuts applied:  6
Gomory fractional cuts applied:  10

Root node processing (before b&c):
  Real time             =    1,58 sec. (1144,99 ticks)
Parallel b&c, 4 threads:
  Real time             =    5,81 sec. (3674,75 ticks)
  Sync time (average)   =    0,40 sec.
  Wait time (average)   =    0,00 sec.
                          ------------
Total (root+branch&cut) =    7,40 sec. (4819,74 ticks)

<<< solve


OBJECTIVE: 46.5457
12/18/2018 23:59:37 420
solving time ~= 7412.024902344
Done
 [[0 0 0 0 13 0 0 0 0 0 0 0 0 0 0 0 0 0 0 0 0 0 0 0 0 0 0 0 0 0 0 0 0 0 0 0
         0 0 0 0]
         [0 0 0 0 0 40 0 0 0 0 0 0 0 0 0 0 0 0 0 0 0 0 0 0 0 0 0 0 0 0 0 0
         0 0 0 0 0 0 0 0]
         [14 0 0 0 0 0 0 0 0 0 0 0 0 0 0 0 0 0 0 0 0 0 0 0 0 0 0 0 0 0 0 0
         0 0 0 0 0 0 0 0]
         [0 1 0 0 0 0 0 0 0 0 0 0 0 0 0 0 0 0 0 0 0 0 0 0 0 0 0 0 0 0 0 0 0
         0 0 0 0 0 0 0]
         [0 0 0 0 0 0 0 0 12 0 0 0 0 0 0 0 0 0 0 0 0 0 0 0 0 0 0 0 0 0 0 0
         0 0 0 0 0 0 0 0]
         [0 0 0 0 0 0 0 0 0 39 0 0 0 0 0 0 0 0 0 0 0 0 0 0 0 0 0 0 0 0 0 0
         0 0 0 0 0 0 0 0]
         [0 0 15 0 0 0 0 0 0 0 0 0 0 0 0 0 0 0 0 0 0 0 0 0 0 0 0 0 0 0 0 0
         0 0 0 0 0 0 0 0]
         [0 0 0 2 0 0 0 0 0 0 0 0 0 0 0 0 0 0 0 0 0 0 0 0 0 0 0 0 0 0 0 0 0
         0 0 0 0 0 0 0]
         [0 0 0 0 0 0 0 0 0 0 0 0 11 0 0 0 0 0 0 0 0 0 0 0 0 0 0 0 0 0 0 0
         0 0 0 0 0 0 0 0]
         [0 0 0 0 0 0 0 0 0 0 0 0 0 38 0 0 0 0 0 0 0 0 0 0 0 0 0 0 0 0 0 0
         0 0 0 0 0 0 0 0]
         [0 0 0 0 0 0 16 0 0 0 0 0 0 0 0 0 0 0 0 0 0 0 0 0 0 0 0 0 0 0 0 0
         0 0 0 0 0 0 0 0]
         [0 0 0 0 0 0 0 3 0 0 0 0 0 0 0 0 0 0 0 0 0 0 0 0 0 0 0 0 0 0 0 0 0
         0 0 0 0 0 0 0]
         [0 0 0 0 0 0 0 0 0 0 0 0 0 0 0 0 10 0 0 0 0 0 0 0 0 0 0 0 0 0 0 0
         0 0 0 0 0 0 0 0]
         [0 0 0 0 0 0 0 0 0 0 0 0 0 0 0 0 0 37 0 0 0 0 0 0 0 0 0 0 0 0 0 0
         0 0 0 0 0 0 0 0]
         [0 0 0 0 0 0 0 0 0 0 17 0 0 0 0 0 0 0 0 0 0 0 0 0 0 0 0 0 0 0 0 0
         0 0 0 0 0 0 0 0]
         [0 0 0 0 0 0 0 0 0 0 0 4 0 0 0 0 0 0 0 0 0 0 0 0 0 0 0 0 0 0 0 0 0
         0 0 0 0 0 0 0]
         [0 0 0 0 0 0 0 0 0 0 0 0 0 0 0 0 0 0 0 0 9 0 0 0 0 0 0 0 0 0 0 0 0
         0 0 0 0 0 0 0]
         [0 0 0 0 0 0 0 0 0 0 0 0 0 0 0 0 0 0 0 0 0 36 0 0 0 0 0 0 0 0 0 0
         0 0 0 0 0 0 0 0]
         [0 0 0 0 0 0 0 0 0 0 0 0 0 0 18 0 0 0 0 0 0 0 0 0 0 0 0 0 0 0 0 0
         0 0 0 0 0 0 0 0]
         [0 0 0 0 0 0 0 0 0 0 0 0 0 0 0 5 0 0 0 0 0 0 0 0 0 0 0 0 0 0 0 0 0
         0 0 0 0 0 0 0]
         [0 0 0 0 0 0 0 0 0 0 0 0 0 0 0 0 0 0 0 0 0 0 0 8 0 0 0 0 0 0 0 0 0
         0 0 0 0 0 0 0]
         [0 0 0 0 0 0 0 0 0 0 0 0 0 0 0 0 0 0 0 0 0 0 0 0 0 35 0 0 0 0 0 0
         0 0 0 0 0 0 0 0]
         [0 0 0 0 0 0 0 0 0 0 0 0 0 0 0 0 0 0 19 0 0 0 0 0 0 0 0 0 0 0 0 0
         0 0 0 0 0 0 0 0]
         [0 0 0 0 0 0 0 0 0 0 0 0 0 0 0 0 0 0 0 0 0 0 0 0 7 0 0 0 0 0 0 0 0
         0 0 0 0 0 0 0]
         [0 0 0 0 0 0 0 0 0 0 0 0 0 0 0 0 0 0 0 6 0 0 0 0 0 0 0 0 0 0 0 0 0
         0 0 0 0 0 0 0]
         [0 0 0 0 0 0 0 0 0 0 0 0 0 0 0 0 0 0 0 0 0 0 0 0 0 0 0 0 34 0 0 0
         0 0 0 0 0 0 0 0]
         [0 0 0 0 0 0 0 0 0 0 0 0 0 0 0 0 0 0 0 0 0 0 0 0 0 0 0 0 0 0 0 0 0
         0 0 0 0 0 0 32]
         [0 0 0 0 0 0 0 0 0 0 0 0 0 0 0 0 0 0 0 0 0 0 20 0 0 0 0 0 0 0 0 0
         0 0 0 0 0 0 0 0]
         [0 0 0 0 0 0 0 0 0 0 0 0 0 0 0 0 0 0 0 0 0 0 0 0 0 0 33 0 0 0 0 0
         0 0 0 0 0 0 0 0]
         [0 0 0 0 0 0 0 0 0 0 0 0 0 0 0 0 0 0 0 0 0 0 0 0 0 0 0 21 0 0 0 0
         0 0 0 0 0 0 0 0]
         [0 0 0 0 0 0 0 0 0 0 0 0 0 0 0 0 0 0 0 0 0 0 0 0 0 0 0 0 0 22 0 0
         0 0 0 0 0 0 0 0]
         [0 0 0 0 0 0 0 0 0 0 0 0 0 0 0 0 0 0 0 0 0 0 0 0 0 0 0 0 0 0 23 0
         0 0 0 0 0 0 0 0]
         [0 0 0 0 0 0 0 0 0 0 0 0 0 0 0 0 0 0 0 0 0 0 0 0 0 0 0 0 0 0 0 24
         0 0 0 0 0 0 0 0]
         [0 0 0 0 0 0 0 0 0 0 0 0 0 0 0 0 0 0 0 0 0 0 0 0 0 0 0 0 0 0 0 0 25
         0 0 0 0 0 0 0]
         [0 0 0 0 0 0 0 0 0 0 0 0 0 0 0 0 0 0 0 0 0 0 0 0 0 0 0 0 0 0 0 0 0
         26 0 0 0 0 0 0]
         [0 0 0 0 0 0 0 0 0 0 0 0 0 0 0 0 0 0 0 0 0 0 0 0 0 0 0 0 0 0 0 0 0
         0 27 0 0 0 0 0]
         [0 0 0 0 0 0 0 0 0 0 0 0 0 0 0 0 0 0 0 0 0 0 0 0 0 0 0 0 0 0 0 0 0
         0 0 28 0 0 0 0]
         [0 0 0 0 0 0 0 0 0 0 0 0 0 0 0 0 0 0 0 0 0 0 0 0 0 0 0 0 0 0 0 0 0
         0 0 0 29 0 0 0]
         [0 0 0 0 0 0 0 0 0 0 0 0 0 0 0 0 0 0 0 0 0 0 0 0 0 0 0 0 0 0 0 0 0
         0 0 0 0 30 0 0]
         [0 0 0 0 0 0 0 0 0 0 0 0 0 0 0 0 0 0 0 0 0 0 0 0 0 0 0 0 0 0 0 0 0
         0 0 0 0 0 31 0]]

<<< post process


<<< done

